RT is False
Default write of storage_offers_DA.csv just to have a file (but constraint should be inactive)
Reading model...
...model read.
creating competitive generators file...
...competitive generators recorded.
Loading data...
.. day-ahead data with real-time VRE data read.
Compiling instance...
...instance created.
Creating Offer Mitigation (model will solve as dispatch if TRUE)...
NOTE: storage offers will not be mitigated
...storage offer mitigation file created
Converting model to MPEC...
...converted
NOTE: initial MIP solve with only storage competitive to get feasible solution
Solving...

Welcome to IBM(R) ILOG(R) CPLEX(R) Interactive Optimizer 12.8.0.0
  with Simplex, Mixed Integer & Barrier Optimizers
5725-A06 5725-A29 5724-Y48 5724-Y49 5724-Y54 5724-Y55 5655-Y21
Copyright IBM Corp. 1988, 2017.  All Rights Reserved.

Type 'help' for a list of available commands.
Type 'help' followed by a command name for more
information on commands.

CPLEX> Logfile 'cplex.log' closed.
Logfile 'C:\Users\llavi\Desktop\test919\logs\tmphd1grsba.cplex.log' open.
CPLEX> New value for parallel optimization mode: -1
CPLEX> New value for mixed integer optimality gap tolerance: 0.01
CPLEX> New value for integrality tolerance: 1e-09
CPLEX> New value for feasibility tolerance: 0.01
CPLEX> New value for deterministic time limit in ticks: 75000
CPLEX> Problem 'C:\Users\llavi\Desktop\test919\logs\tmp7sk49_4w.pyomo.lp' read.
Read time = 0.33 sec. (13.50 ticks)
CPLEX> Problem name         : C:\Users\llavi\Desktop\test919\logs\tmp7sk49_4w.pyomo.lp
Objective sense      : Maximize
Variables            :   54021  [Nneg: 1,  Box: 22008,  Free: 4464,
                                 Binary: 27548]
Objective nonzeros   :    8978
Linear constraints   :  123829  [Less: 41554,  Greater: 59512,  Equal: 22763]
  Nonzeros           :  300591
  RHS nonzeros       :   67899

Variables            : Min LB: -5000.000        Max UB: 1000000.       
Objective nonzeros   : Min   : 0.5083333        Max   : 834.7833       
Linear constraints   :
  Nonzeros           : Min   : 0.001000000      Max   : 1000000.       
  RHS nonzeros       : Min   : 0.5083333        Max   : 1000000.       
CPLEX> CPXPARAM_Simplex_Tolerances_Feasibility          0.01
CPXPARAM_Parallel                                -1
CPXPARAM_DetTimeLimit                            75000
CPXPARAM_MIP_Tolerances_MIPGap                   0.01
CPXPARAM_MIP_Tolerances_Integrality              1.0000000000000001e-09
Tried aggregator 3 times.
MIP Presolve eliminated 89275 rows and 19166 columns.
MIP Presolve added 3397 rows and 0 columns.
MIP Presolve modified 23893 coefficients.
Aggregator did 13072 substitutions.
Reduced MIP has 24879 rows, 21226 columns, and 71025 nonzeros.
Reduced MIP has 8406 binaries, 0 generals, 0 SOSs, and 0 indicators.
Presolve time = 0.27 sec. (167.27 ticks)
Probing fixed 389 vars, tightened 2854 bounds.
Probing time = 3.41 sec. (896.36 ticks)
Tried aggregator 2 times.
MIP Presolve eliminated 878 rows and 778 columns.
MIP Presolve modified 2188 coefficients.
Aggregator did 40 substitutions.
Reduced MIP has 23961 rows, 20408 columns, and 68371 nonzeros.
Reduced MIP has 8017 binaries, 0 generals, 0 SOSs, and 0 indicators.
Presolve time = 0.13 sec. (54.46 ticks)
Probing time = 0.09 sec. (15.24 ticks)
Clique table members: 6592.
MIP emphasis: balance optimality and feasibility.
MIP search method: dynamic search.
Parallel mode: opportunistic, using up to 4 threads.
Root relaxation solution time = 0.61 sec. (419.81 ticks)

        Nodes                                         Cuts/
   Node  Left     Objective  IInf  Best Integer    Best Bound    ItCnt     Gap

      0     0     2362.4558   669                   2362.4558     2710         
*     0     0      integral     0     2362.4558     2362.4558     2710    0.00%
Elapsed time = 8.08 sec. (2714.25 ticks, tree = 0.01 MB, solutions = 1)

Root node processing (before b&c):
  Real time             =    8.09 sec. (2716.53 ticks)
Parallel b&c, 4 threads:
  Real time             =    0.00 sec. (0.00 ticks)
  Sync time (average)   =    0.00 sec.
  Wait time (average)   =    0.00 sec.
                          ------------
Total (root+branch&cut) =    8.09 sec. (2716.53 ticks)

Solution pool: 1 solution saved.

MIP - Integer optimal solution:  Objective =  2.3624558322e+03
Solution time =    8.11 sec.  Iterations = 2710  Nodes = 0
Deterministic time = 2716.68 ticks  (334.98 ticks/sec)

CPLEX> Incumbent solution written to file 'C:\Users\llavi\Desktop\test919\logs\tmpbm5sdw50.cplex.sol'.
CPLEX> NOTE: no warmstart specified for MIP iteration, default behavior is true
NOTE: resolving with all competitive generators using storage-only solution to warmstart
Solving...

Welcome to IBM(R) ILOG(R) CPLEX(R) Interactive Optimizer 12.8.0.0
  with Simplex, Mixed Integer & Barrier Optimizers
5725-A06 5725-A29 5724-Y48 5724-Y49 5724-Y54 5724-Y55 5655-Y21
Copyright IBM Corp. 1988, 2017.  All Rights Reserved.

Type 'help' for a list of available commands.
Type 'help' followed by a command name for more
information on commands.

CPLEX> Logfile 'cplex.log' closed.
Logfile 'C:\Users\llavi\Desktop\test919\logs\tmpumbiw_hm.cplex.log' open.
CPLEX> New value for parallel optimization mode: -1
CPLEX> New value for mixed integer optimality gap tolerance: 0.01
CPLEX> New value for integrality tolerance: 1e-09
CPLEX> New value for feasibility tolerance: 0.01
CPLEX> New value for deterministic time limit in ticks: 75000
CPLEX> Problem 'C:\Users\llavi\Desktop\test919\logs\tmpl0dq42ih.pyomo.lp' read.
Read time = 0.31 sec. (13.52 ticks)
CPLEX> MIP start file 'C:\Users\llavi\Desktop\test919\logs\tmp_tl62_6f.cplex.mst' read.
CPLEX> Problem name         : C:\Users\llavi\Desktop\test919\logs\tmpl0dq42ih.pyomo.lp
Objective sense      : Maximize
Variables            :   54741  [Nneg: 1,  Box: 22728,  Free: 4464,
                                 Binary: 27548]
Objective nonzeros   :    9698
Linear constraints   :  123829  [Less: 41554,  Greater: 59512,  Equal: 22763]
  Nonzeros           :  300591
  RHS nonzeros       :   67899

Variables            : Min LB: -5000.000        Max UB: 1000000.       
Objective nonzeros   : Min   : 0.5083333        Max   : 834.7833       
Linear constraints   :
  Nonzeros           : Min   : 0.001000000      Max   : 1000000.       
  RHS nonzeros       : Min   : 0.5083333        Max   : 1000000.       
CPLEX> CPXPARAM_Simplex_Tolerances_Feasibility          0.01
CPXPARAM_Parallel                                -1
CPXPARAM_DetTimeLimit                            75000
CPXPARAM_MIP_Tolerances_MIPGap                   0.01
CPXPARAM_MIP_Tolerances_Integrality              1.0000000000000001e-09
1 of 1 MIP starts provided solutions.
MIP start 'm1' defined initial solution with objective 2362.4558.
Tried aggregator 3 times.
MIP Presolve eliminated 89275 rows and 19886 columns.
MIP Presolve added 3397 rows and 0 columns.
MIP Presolve modified 23893 coefficients.
Aggregator did 13072 substitutions.
Reduced MIP has 24879 rows, 21226 columns, and 71025 nonzeros.
Reduced MIP has 8406 binaries, 0 generals, 0 SOSs, and 0 indicators.
Presolve time = 0.45 sec. (167.63 ticks)
Probing fixed 389 vars, tightened 2854 bounds.
Probing time = 5.22 sec. (896.36 ticks)
Tried aggregator 2 times.
MIP Presolve eliminated 878 rows and 778 columns.
MIP Presolve modified 2188 coefficients.
Aggregator did 40 substitutions.
Reduced MIP has 23961 rows, 20408 columns, and 68371 nonzeros.
Reduced MIP has 8017 binaries, 0 generals, 0 SOSs, and 0 indicators.
Presolve time = 0.19 sec. (54.45 ticks)
Probing fixed 0 vars, tightened 1 bounds.
Probing time = 0.06 sec. (19.91 ticks)
Clique table members: 6592.
MIP emphasis: balance optimality and feasibility.
MIP search method: dynamic search.
Parallel mode: opportunistic, using up to 4 threads.
Root relaxation solution time = 0.36 sec. (164.87 ticks)

        Nodes                                         Cuts/
   Node  Left     Objective  IInf  Best Integer    Best Bound    ItCnt     Gap

*     0+    0                         2362.4558   5.16879e+07              --- 
      0     0        cutoff           2362.4558                   2629     --- 

Root node processing (before b&c):
  Real time             =   14.64 sec. (3680.28 ticks)
Parallel b&c, 4 threads:
  Real time             =    0.00 sec. (0.00 ticks)
  Sync time (average)   =    0.00 sec.
  Wait time (average)   =    0.00 sec.
                          ------------
Total (root+branch&cut) =   14.64 sec. (3680.28 ticks)

Solution pool: 1 solution saved.

MIP - Integer optimal solution:  Objective =  2.3624558322e+03
Solution time =   14.66 sec.  Iterations = 2629  Nodes = 0
Deterministic time = 3680.44 ticks  (251.12 ticks/sec)

CPLEX> Incumbent solution written to file 'C:\Users\llavi\Desktop\test919\logs\tmprk93rgcb.cplex.sol'.
CPLEX> Exporting results... 
